benchmarks/bfuzz0/3001532303268442925311712204801725725493.smt2
(set-logic QF_FP)
(declare-const x0 (_ FloatingPoint 11 53))
(declare-const x1 (_ FloatingPoint 11 53))
(declare-const x2 (_ FloatingPoint 11 53))
(declare-const x3 (_ FloatingPoint 11 53))
(declare-const x4 (_ FloatingPoint 11 53))
(declare-const x5 (_ FloatingPoint 11 53))
(assert (fp.geq (fp.neg x1) (fp.mul RNE x2 x5)))
(assert (fp.gt (fp.div RNE x1 x1) (fp.add RNE x4 x4)))
(assert (fp.gt (fp.neg x5) (fp.div RNE x0 x3)))
(assert (fp.lt (fp.mul RNE x1 x3) (fp.add RNE x0 x5)))
(assert (fp.geq (fp.add RNE x3 x0) (fp.add RNE x2 x3)))
(check-sat)
