db/data/3001532303268442925311712204801725725493.z3.out
sat
-------------------
116.457919374
